
  12    4
  10   10   10   10

   0   0   0   0   0   4 2 3 4 11 
   5  10  10  10  10   2 10 5 
   2  10  10  10  10   2 10 5 
  10  10  10  10  10   4 10 9 8 6 
   3  10  10  10  10   3 9 8 6 
   8  10  10  10  10   1 7 
   9  10  10  10  10   1 12
   9  10  10  10  10   1 12
   6  10  10  10  10   1 12
   1  10  10  10  10   1 12
   8  10  10  10  10   1 12
   0   0   0   0   0   0 
